dataset/train_formulas/aes_32_3_keyfind_2.processed.cnf
p cnf 450 2204
-1 -2 -3 4 0
-1 -2 -4 -5 0
-6 4 -5 0
-1 2 4 -5 0
6 1 -2 -7 0
2 3 -4 -7 0
1 -3 -5 -7 0
-1 2 -3 5 -7 0
6 -4 7 0
-2 3 -4 7 0
6 -1 2 -8 0
-2 -3 -8 0
-1 -4 -8 0
1 2 4 -8 0
2 3 -5 -8 0
-2 5 -8 0
-6 -3 -4 5 -8 0
-1 3 7 -8 0
6 -2 3 8 0
1 5 8 0
-6 -7 8 0
2 7 8 0
-9 -10 -11 12 0
-9 -10 -12 -13 0
-14 12 -13 0
-9 10 12 -13 0
14 9 -10 -15 0
10 11 -12 -15 0
9 -11 -13 -15 0
-9 10 -11 13 -15 0
14 -12 15 0
-10 11 -12 15 0
14 -9 10 -16 0
-10 -11 -16 0
-9 -12 -16 0
9 10 12 -16 0
10 11 -13 -16 0
-10 13 -16 0
-14 -11 -12 13 -16 0
-9 11 15 -16 0
14 -10 11 16 0
9 13 16 0
-14 -15 16 0
10 15 16 0
14 17 -18 0
-14 17 18 0
14 -17 18 0
-14 -17 -18 0
9 19 -20 0
-9 19 20 0
9 -19 20 0
-9 -19 -20 0
10 21 -22 0
-10 21 22 0
10 -21 22 0
-10 -21 -22 0
11 23 -24 0
-11 23 24 0
11 -23 24 0
-11 -23 -24 0
6 25 -26 0
-6 25 26 0
6 -25 26 0
-6 -25 -26 0
1 27 -28 0
-1 27 28 0
1 -27 28 0
-1 -27 -28 0
2 29 -30 0
-2 29 30 0
2 -29 30 0
-2 -29 -30 0
3 31 -32 0
-3 31 32 0
3 -31 32 0
-3 -31 -32 0
-28 -30 -32 33 0
-28 -30 -33 -34 0
-26 33 -34 0
-28 30 33 -34 0
26 28 -30 -35 0
30 32 -33 -35 0
28 -32 -34 -35 0
-28 30 -32 34 -35 0
26 -33 35 0
-30 32 -33 35 0
26 -28 30 -36 0
-30 -32 -36 0
-28 -33 -36 0
28 30 33 -36 0
30 32 -34 -36 0
-30 34 -36 0
-26 -32 -33 34 -36 0
-28 32 35 -36 0
26 -30 32 36 0
28 34 36 0
-26 -35 36 0
30 35 36 0
37 -38 33 0
37 38 -33 0
-37 38 33 0
-37 -38 -33 0
39 -40 34 0
39 40 -34 0
-39 40 34 0
-39 -40 -34 0
41 42 35 0
41 -42 -35 0
-41 -42 35 0
-41 42 -35 0
43 -44 36 0
43 44 -36 0
-43 44 36 0
-43 -44 -36 0
-20 -22 -24 45 0
-20 -22 -45 -46 0
-18 45 -46 0
-20 22 45 -46 0
18 20 -22 -47 0
22 24 -45 -47 0
20 -24 -46 -47 0
-20 22 -24 46 -47 0
18 -45 47 0
-22 24 -45 47 0
18 -20 22 -48 0
-22 -24 -48 0
-20 -45 -48 0
20 22 45 -48 0
22 24 -46 -48 0
-22 46 -48 0
-18 -24 -45 46 -48 0
-20 24 47 -48 0
18 -22 24 48 0
20 46 48 0
-18 -47 48 0
22 47 48 0
49 -50 45 0
49 50 -45 0
-49 50 45 0
-49 -50 -45 0
51 -52 46 0
51 52 -46 0
-51 52 46 0
-51 -52 -46 0
53 -54 47 0
53 54 -47 0
-53 54 47 0
-53 -54 -47 0
55 -56 48 0
55 56 -48 0
-55 56 48 0
-55 -56 -48 0
57 38 -58 0
-57 38 58 0
57 -38 58 0
-57 -38 -58 0
59 40 -60 0
-59 40 60 0
59 -40 60 0
-59 -40 -60 0
61 42 -62 0
-61 42 62 0
61 -42 62 0
-61 -42 -62 0
63 44 -64 0
-63 44 64 0
63 -44 64 0
-63 -44 -64 0
65 50 -66 0
-65 50 66 0
65 -50 66 0
-65 -50 -66 0
67 52 -68 0
-67 52 68 0
67 -52 68 0
-67 -52 -68 0
69 54 -70 0
-69 54 70 0
69 -54 70 0
-69 -54 -70 0
71 56 -72 0
-71 56 72 0
71 -56 72 0
-71 -56 -72 0
17 58 -73 0
-17 58 73 0
17 -58 73 0
-17 -58 -73 0
19 60 -74 0
-19 60 74 0
19 -60 74 0
-19 -60 -74 0
21 62 -75 0
-21 62 75 0
21 -62 75 0
-21 -62 -75 0
23 64 -76 0
-23 64 76 0
23 -64 76 0
-23 -64 -76 0
25 66 -77 0
-25 66 77 0
25 -66 77 0
-25 -66 -77 0
27 68 -78 0
-27 68 78 0
27 -68 78 0
-27 -68 -78 0
29 70 -79 0
-29 70 79 0
29 -70 79 0
-29 -70 -79 0
31 72 -80 0
-31 72 80 0
31 -72 80 0
-31 -72 -80 0
18 73 -81 0
-18 73 81 0
18 -73 81 0
-18 -73 -81 0
20 74 -82 0
-20 74 82 0
20 -74 82 0
-20 -74 -82 0
22 75 -83 0
-22 75 83 0
22 -75 83 0
-22 -75 -83 0
24 76 -84 0
-24 76 84 0
24 -76 84 0
-24 -76 -84 0
26 77 -85 0
-26 77 85 0
26 -77 85 0
-26 -77 -85 0
28 78 -86 0
-28 78 86 0
28 -78 86 0
-28 -78 -86 0
30 79 -87 0
-30 79 87 0
30 -79 87 0
-30 -79 -87 0
32 80 -88 0
-32 80 88 0
32 -80 88 0
-32 -80 -88 0
-86 -87 -88 89 0
-86 -87 -89 -90 0
-85 89 -90 0
-86 87 89 -90 0
85 86 -87 -91 0
87 88 -89 -91 0
86 -88 -90 -91 0
-86 87 -88 90 -91 0
85 -89 91 0
-87 88 -89 91 0
85 -86 87 -92 0
-87 -88 -92 0
-86 -89 -92 0
86 87 89 -92 0
87 88 -90 -92 0
-87 90 -92 0
-85 -88 -89 90 -92 0
-86 88 91 -92 0
85 -87 88 92 0
86 90 92 0
-85 -91 92 0
87 91 92 0
38 -93 89 0
38 93 -89 0
-38 93 89 0
-38 -93 -89 0
40 94 90 0
40 -94 -90 0
-40 -94 90 0
-40 94 -90 0
42 -95 91 0
42 95 -91 0
-42 95 91 0
-42 -95 -91 0
44 -96 92 0
44 96 -92 0
-44 96 92 0
-44 -96 -92 0
-82 -83 -84 97 0
-82 -83 -97 -98 0
-81 97 -98 0
-82 83 97 -98 0
81 82 -83 -99 0
83 84 -97 -99 0
82 -84 -98 -99 0
-82 83 -84 98 -99 0
81 -97 99 0
-83 84 -97 99 0
81 -82 83 -100 0
-83 -84 -100 0
-82 -97 -100 0
82 83 97 -100 0
83 84 -98 -100 0
-83 98 -100 0
-81 -84 -97 98 -100 0
-82 84 99 -100 0
81 -83 84 100 0
82 98 100 0
-81 -99 100 0
83 99 100 0
50 -101 97 0
50 101 -97 0
-50 101 97 0
-50 -101 -97 0
52 -102 98 0
52 102 -98 0
-52 102 98 0
-52 -102 -98 0
54 -103 99 0
54 103 -99 0
-54 103 99 0
-54 -103 -99 0
56 -104 100 0
56 104 -100 0
-56 104 100 0
-56 -104 -100 0
58 93 -105 0
-58 93 105 0
58 -93 105 0
-58 -93 -105 0
60 94 -106 0
-60 94 106 0
60 -94 106 0
-60 -94 -106 0
62 95 -107 0
-62 95 107 0
62 -95 107 0
-62 -95 -107 0
64 96 -108 0
-64 96 108 0
64 -96 108 0
-64 -96 -108 0
66 101 -109 0
-66 101 109 0
66 -101 109 0
-66 -101 -109 0
68 102 -110 0
-68 102 110 0
68 -102 110 0
-68 -102 -110 0
70 103 -111 0
-70 103 111 0
70 -103 111 0
-70 -103 -111 0
72 104 -112 0
-72 104 112 0
72 -104 112 0
-72 -104 -112 0
73 105 -113 0
-73 105 113 0
73 -105 113 0
-73 -105 -113 0
74 106 -114 0
-74 106 114 0
74 -106 114 0
-74 -106 -114 0
75 107 -115 0
-75 107 115 0
75 -107 115 0
-75 -107 -115 0
76 108 -116 0
-76 108 116 0
76 -108 116 0
-76 -108 -116 0
77 109 -117 0
-77 109 117 0
77 -109 117 0
-77 -109 -117 0
78 110 -118 0
-78 110 118 0
78 -110 118 0
-78 -110 -118 0
79 111 -119 0
-79 111 119 0
79 -111 119 0
-79 -111 -119 0
80 112 -120 0
-80 112 120 0
80 -112 120 0
-80 -112 -120 0
14 121 0
-14 -121 0
9 -122 0
-9 122 0
10 -123 0
-10 123 0
11 -124 0
-11 124 0
6 125 0
-6 -125 0
1 -126 0
-1 126 0
2 127 0
-2 -127 0
3 128 0
-3 -128 0
-129 -130 -131 132 0
-129 -130 -132 -133 0
-134 132 -133 0
-129 130 132 -133 0
134 129 -130 -135 0
130 131 -132 -135 0
129 -131 -133 -135 0
-129 130 -131 133 -135 0
134 -132 135 0
-130 131 -132 135 0
134 -129 130 -136 0
-130 -131 -136 0
-129 -132 -136 0
129 130 132 -136 0
130 131 -133 -136 0
-130 133 -136 0
-134 -131 -132 133 -136 0
-129 131 135 -136 0
134 -130 131 136 0
129 133 136 0
-134 -135 136 0
130 135 136 0
-137 -138 -139 140 0
-137 -138 -140 -141 0
-142 140 -141 0
-137 138 140 -141 0
142 137 -138 -143 0
138 139 -140 -143 0
137 -139 -141 -143 0
-137 138 -139 141 -143 0
142 -140 143 0
-138 139 -140 143 0
142 -137 138 -144 0
-138 -139 -144 0
-137 -140 -144 0
137 138 140 -144 0
138 139 -141 -144 0
-138 141 -144 0
-142 -139 -140 141 -144 0
-137 139 143 -144 0
142 -138 139 144 0
137 141 144 0
-142 -143 144 0
138 143 144 0
-145 -146 -147 148 0
-145 -146 -148 -149 0
-150 148 -149 0
-145 146 148 -149 0
150 145 -146 -151 0
146 147 -148 -151 0
145 -147 -149 -151 0
-145 146 -147 149 -151 0
150 -148 151 0
-146 147 -148 151 0
150 -145 146 -152 0
-146 -147 -152 0
-145 -148 -152 0
145 146 148 -152 0
146 147 -149 -152 0
-146 149 -152 0
-150 -147 -148 149 -152 0
-145 147 151 -152 0
150 -146 147 152 0
145 149 152 0
-150 -151 152 0
146 151 152 0
-153 -154 -155 156 0
-153 -154 -156 -157 0
-158 156 -157 0
-153 154 156 -157 0
158 153 -154 -159 0
154 155 -156 -159 0
153 -155 -157 -159 0
-153 154 -155 157 -159 0
158 -156 159 0
-154 155 -156 159 0
158 -153 154 -160 0
-154 -155 -160 0
-153 -156 -160 0
153 154 156 -160 0
154 155 -157 -160 0
-154 157 -160 0
-158 -155 -156 157 -160 0
-153 155 159 -160 0
158 -154 155 160 0
153 157 160 0
-158 -159 160 0
154 159 160 0
-161 -162 -163 164 0
-161 -162 -164 -165 0
-166 164 -165 0
-161 162 164 -165 0
166 161 -162 -167 0
162 163 -164 -167 0
161 -163 -165 -167 0
-161 162 -163 165 -167 0
166 -164 167 0
-162 163 -164 167 0
166 -161 162 -168 0
-162 -163 -168 0
-161 -164 -168 0
161 162 164 -168 0
162 163 -165 -168 0
-162 165 -168 0
-166 -163 -164 165 -168 0
-161 163 167 -168 0
166 -162 163 168 0
161 165 168 0
-166 -167 168 0
162 167 168 0
-169 -170 -171 172 0
-169 -170 -172 -173 0
-174 172 -173 0
-169 170 172 -173 0
174 169 -170 -175 0
170 171 -172 -175 0
169 -171 -173 -175 0
-169 170 -171 173 -175 0
174 -172 175 0
-170 171 -172 175 0
174 -169 170 -176 0
-170 -171 -176 0
-169 -172 -176 0
169 170 172 -176 0
170 171 -173 -176 0
-170 173 -176 0
-174 -171 -172 173 -176 0
-169 171 175 -176 0
174 -170 171 176 0
169 173 176 0
-174 -175 176 0
170 175 176 0
-122 -123 -124 177 0
-122 -123 -177 -178 0
-121 177 -178 0
-122 123 177 -178 0
121 122 -123 -179 0
123 124 -177 -179 0
122 -124 -178 -179 0
-122 123 -124 178 -179 0
121 -177 179 0
-123 124 -177 179 0
121 -122 123 -180 0
-123 -124 -180 0
-122 -177 -180 0
122 123 177 -180 0
123 124 -178 -180 0
-123 178 -180 0
-121 -124 -177 178 -180 0
-122 124 179 -180 0
121 -123 124 180 0
122 178 180 0
-121 -179 180 0
123 179 180 0
-126 -127 -128 181 0
-126 -127 -181 -182 0
-125 181 -182 0
-126 127 181 -182 0
125 126 -127 -183 0
127 128 -181 -183 0
126 -128 -182 -183 0
-126 127 -128 182 -183 0
125 -181 183 0
-127 128 -181 183 0
125 -126 127 -184 0
-127 -128 -184 0
-126 -181 -184 0
126 127 181 -184 0
127 128 -182 -184 0
-127 182 -184 0
-125 -128 -181 182 -184 0
-126 128 183 -184 0
125 -127 128 184 0
126 182 184 0
-125 -183 184 0
127 183 184 0
-140 -144 -185 0
-140 144 185 0
140 -186 0
144 -185 186 0
-144 185 186 0
177 178 -187 0
-177 178 187 0
-178 -179 -188 0
-177 179 -187 -188 0
177 179 187 -188 0
-178 179 188 0
-177 -179 -187 188 0
177 -179 187 188 0
-177 -180 -189 0
177 180 -189 0
177 -180 189 0
-177 180 189 0
140 141 -190 0
-140 141 190 0
-141 -143 -191 0
-140 143 -190 -191 0
140 143 190 -191 0
-141 143 191 0
-140 -143 -190 191 0
140 -143 190 191 0
-140 -144 -192 0
140 144 -192 0
140 -144 192 0
-140 144 192 0
-177 -180 -193 0
-177 180 193 0
177 -194 0
180 -193 194 0
-180 193 194 0
-181 -184 -195 0
-181 184 195 0
181 -196 0
184 -195 196 0
-184 195 196 0
164 165 -197 0
-164 165 197 0
-165 -167 -198 0
-164 167 -197 -198 0
164 167 197 -198 0
-165 167 198 0
-164 -167 -197 198 0
164 -167 197 198 0
-164 -168 -199 0
164 168 -199 0
-167 -200 -199 0
167 200 -199 0
164 -168 199 0
-164 168 199 0
167 -200 199 0
-167 200 199 0
181 182 -201 0
-181 182 201 0
-182 -183 -202 0
-181 183 -201 -202 0
181 183 201 -202 0
-182 183 202 0
-181 -183 -201 202 0
181 -183 201 202 0
-181 -184 -203 0
181 184 -203 0
181 -184 203 0
-181 184 203 0
-164 -168 -204 0
-164 168 204 0
164 -205 0
168 -204 205 0
-168 204 205 0
-172 -176 -206 0
-172 176 206 0
172 -207 0
176 -206 207 0
-176 206 207 0
148 149 -208 0
-148 149 208 0
-149 -151 -209 0
-148 151 -208 -209 0
148 151 208 -209 0
-149 151 209 0
-148 -151 -208 209 0
148 -151 208 209 0
-148 -152 -210 0
148 152 -210 0
-151 -211 -210 0
151 211 -210 0
148 -152 210 0
-148 152 210 0
151 -211 210 0
-151 211 210 0
172 173 -212 0
-172 173 212 0
-173 -175 -213 0
-172 175 -212 -213 0
172 175 212 -213 0
-173 175 213 0
-172 -175 -212 213 0
172 -175 212 213 0
-172 -176 -214 0
172 176 -214 0
172 -176 214 0
-172 176 214 0
-148 -152 -215 0
-148 152 215 0
148 -216 0
152 -215 216 0
-152 215 216 0
-156 -160 -217 0
-156 160 217 0
156 -218 0
160 -217 218 0
-160 217 218 0
132 133 -219 0
-132 133 219 0
-133 -135 -220 0
-132 135 -219 -220 0
132 135 219 -220 0
-133 135 220 0
-132 -135 -219 220 0
132 -135 219 220 0
-132 -136 -221 0
132 136 -221 0
132 -136 221 0
-132 136 221 0
156 157 -222 0
-156 157 222 0
-157 -159 -223 0
-156 159 -222 -223 0
156 159 222 -223 0
-157 159 223 0
-156 -159 -222 223 0
156 -159 222 223 0
-156 -160 -224 0
156 160 -224 0
-159 -225 -224 0
159 225 -224 0
156 -160 224 0
-156 160 224 0
159 -225 224 0
-159 225 224 0
-132 -136 -226 0
-132 136 226 0
132 -227 0
136 -226 227 0
-136 226 227 0
-228 41 229 0
228 -41 229 0
228 41 -229 0
-228 -41 -229 0
-230 69 231 0
230 -69 231 0
230 69 -231 0
-230 -69 -231 0
-232 29 233 0
232 -29 233 0
232 29 -233 0
-232 -29 -233 0
-234 22 235 0
234 -22 235 0
234 22 -235 0
-234 -22 -235 0
-236 30 237 0
236 -30 237 0
236 30 -237 0
-236 -30 -237 0
-238 -228 -239 240 0
-238 -228 -240 -241 0
-242 240 -241 0
-238 228 240 -241 0
242 238 -228 -243 0
228 239 -240 -243 0
238 -239 -241 -243 0
-238 228 -239 241 -243 0
242 -240 243 0
-228 239 -240 243 0
242 -238 228 -244 0
-228 -239 -244 0
-238 -240 -244 0
238 228 240 -244 0
228 239 -241 -244 0
-228 241 -244 0
-242 -239 -240 241 -244 0
-238 239 243 -244 0
242 -228 239 244 0
238 241 244 0
-242 -243 244 0
228 243 244 0
-245 -246 -247 248 0
-245 -246 -248 -249 0
-250 248 -249 0
-245 246 248 -249 0
250 245 -246 -251 0
246 247 -248 -251 0
245 -247 -249 -251 0
-245 246 -247 249 -251 0
250 -248 251 0
-246 247 -248 251 0
250 -245 246 -252 0
-246 -247 -252 0
-245 -248 -252 0
245 246 248 -252 0
246 247 -249 -252 0
-246 249 -252 0
-250 -247 -248 249 -252 0
-245 247 251 -252 0
250 -246 247 252 0
245 249 252 0
-250 -251 252 0
246 251 252 0
-253 -254 -255 256 0
-253 -254 -256 -257 0
-258 256 -257 0
-253 254 256 -257 0
258 253 -254 -259 0
254 255 -256 -259 0
253 -255 -257 -259 0
-253 254 -255 257 -259 0
258 -256 259 0
-254 255 -256 259 0
258 -253 254 -260 0
-254 -255 -260 0
-253 -256 -260 0
253 254 256 -260 0
254 255 -257 -260 0
-254 257 -260 0
-258 -255 -256 257 -260 0
-253 255 259 -260 0
258 -254 255 260 0
253 257 260 0
-258 -259 260 0
254 259 260 0
-261 -230 -262 263 0
-261 -230 -263 -264 0
-265 263 -264 0
-261 230 263 -264 0
265 261 -230 -266 0
230 262 -263 -266 0
261 -262 -264 -266 0
-261 230 -262 264 -266 0
265 -263 266 0
-230 262 -263 266 0
265 -261 230 -267 0
-230 -262 -267 0
-261 -263 -267 0
261 230 263 -267 0
230 262 -264 -267 0
-230 264 -267 0
-265 -262 -263 264 -267 0
-261 262 266 -267 0
265 -230 262 267 0
261 264 267 0
-265 -266 267 0
230 266 267 0
-268 -269 -270 271 0
-268 -269 -271 -272 0
-273 271 -272 0
-268 269 271 -272 0
273 268 -269 -274 0
269 270 -271 -274 0
268 -270 -272 -274 0
-268 269 -270 272 -274 0
273 -271 274 0
-269 270 -271 274 0
273 -268 269 -275 0
-269 -270 -275 0
-268 -271 -275 0
268 269 271 -275 0
269 270 -272 -275 0
-269 272 -275 0
-273 -270 -271 272 -275 0
-268 270 274 -275 0
273 -269 270 275 0
268 272 275 0
-273 -274 275 0
269 274 275 0
-276 -232 -277 278 0
-276 -232 -278 -279 0
-280 278 -279 0
-276 232 278 -279 0
280 276 -232 -281 0
232 277 -278 -281 0
276 -277 -279 -281 0
-276 232 -277 279 -281 0
280 -278 281 0
-232 277 -278 281 0
280 -276 232 -282 0
-232 -277 -282 0
-276 -278 -282 0
276 232 278 -282 0
232 277 -279 -282 0
-232 279 -282 0
-280 -277 -278 279 -282 0
-276 277 281 -282 0
280 -232 277 282 0
276 279 282 0
-280 -281 282 0
232 281 282 0
-283 -234 -284 285 0
-283 -234 -285 -286 0
-287 285 -286 0
-283 234 285 -286 0
287 283 -234 -288 0
234 284 -285 -288 0
283 -284 -286 -288 0
-283 234 -284 286 -288 0
287 -285 288 0
-234 284 -285 288 0
287 -283 234 -289 0
-234 -284 -289 0
-283 -285 -289 0
283 234 285 -289 0
234 284 -286 -289 0
-234 286 -289 0
-287 -284 -285 286 -289 0
-283 284 288 -289 0
287 -234 284 289 0
283 286 289 0
-287 -288 289 0
234 288 289 0
-290 -236 -291 292 0
-290 -236 -292 -293 0
-294 292 -293 0
-290 236 292 -293 0
294 290 -236 -295 0
236 291 -292 -295 0
290 -291 -293 -295 0
-290 236 -291 293 -295 0
294 -292 295 0
-236 291 -292 295 0
294 -290 236 -296 0
-236 -291 -296 0
-290 -292 -296 0
290 236 292 -296 0
236 291 -293 -296 0
-236 293 -296 0
-294 -291 -292 293 -296 0
-290 291 295 -296 0
294 -236 291 296 0
290 293 296 0
-294 -295 296 0
236 295 296 0
-248 -252 -297 0
-248 252 297 0
248 -298 0
252 -297 298 0
-252 297 298 0
285 286 -299 0
-285 286 299 0
-286 -288 -300 0
-285 288 -299 -300 0
285 288 299 -300 0
-286 288 300 0
-285 -288 -299 300 0
285 -288 299 300 0
-285 -289 -301 0
285 289 -301 0
285 -289 301 0
-285 289 301 0
248 249 -302 0
-248 249 302 0
-249 -251 -303 0
-248 251 -302 -303 0
248 251 302 -303 0
-249 251 303 0
-248 -251 -302 303 0
248 -251 302 303 0
-248 -252 -304 0
248 252 -304 0
248 -252 304 0
-248 252 304 0
-285 -289 -305 0
-285 289 305 0
285 -306 0
289 -305 306 0
-289 305 306 0
-292 -296 -307 0
-292 296 307 0
292 -308 0
296 -307 308 0
-296 307 308 0
271 272 -309 0
-271 272 309 0
-272 -274 -310 0
-271 274 -309 -310 0
271 274 309 -310 0
-272 274 310 0
-271 -274 -309 310 0
271 -274 309 310 0
-271 -275 -311 0
271 275 -311 0
271 -275 311 0
-271 275 311 0
292 293 -312 0
-292 293 312 0
-293 -295 -313 0
-292 295 -312 -313 0
292 295 312 -313 0
-293 295 313 0
-292 -295 -312 313 0
292 -295 312 313 0
-292 -296 -314 0
292 296 -314 0
-295 -315 -314 0
295 315 -314 0
292 -296 314 0
-292 296 314 0
295 -315 314 0
-295 315 314 0
-271 -275 -316 0
-271 275 316 0
271 -317 0
275 -316 317 0
-275 316 317 0
-278 -282 -318 0
-278 282 318 0
278 -319 0
282 -318 319 0
-282 318 319 0
256 257 -320 0
-256 257 320 0
-257 -259 -321 0
-256 259 -320 -321 0
256 259 320 -321 0
-257 259 321 0
-256 -259 -320 321 0
256 -259 320 321 0
-256 -260 -322 0
256 260 -322 0
-259 -323 -322 0
259 323 -322 0
256 -260 322 0
-256 260 322 0
259 -323 322 0
-259 323 322 0
278 279 -324 0
-278 279 324 0
-279 -281 -325 0
-278 281 -324 -325 0
278 281 324 -325 0
-279 281 325 0
-278 -281 -324 325 0
278 -281 324 325 0
-278 -282 -326 0
278 282 -326 0
-281 -327 -326 0
281 327 -326 0
278 -282 326 0
-278 282 326 0
281 -327 326 0
-281 327 326 0
-256 -260 -328 0
-256 260 328 0
256 -329 0
260 -328 329 0
-260 328 329 0
-263 -267 -330 0
-263 267 330 0
263 -331 0
267 -330 331 0
-267 330 331 0
240 241 -332 0
-240 241 332 0
-241 -243 -333 0
-240 243 -332 -333 0
240 243 332 -333 0
-241 243 333 0
-240 -243 -332 333 0
240 -243 332 333 0
-240 -244 -334 0
240 244 -334 0
-243 -335 -334 0
243 335 -334 0
240 -244 334 0
-240 244 334 0
243 -335 334 0
-243 335 334 0
263 264 -336 0
-263 264 336 0
-264 -266 -337 0
-263 266 -336 -337 0
263 266 336 -337 0
-264 266 337 0
-263 -266 -336 337 0
263 -266 336 337 0
-263 -267 -338 0
263 267 -338 0
-266 -339 -338 0
266 339 -338 0
263 -267 338 0
-263 267 338 0
266 -339 338 0
-266 339 338 0
-240 -244 -340 0
-240 244 340 0
240 -341 0
244 -340 341 0
-244 340 341 0
-342 75 343 0
342 -75 343 0
342 75 -343 0
-342 -75 -343 0
-344 83 345 0
344 -83 345 0
344 83 -345 0
-344 -83 -345 0
-346 87 347 0
346 -87 347 0
346 87 -347 0
-346 -87 -347 0
-348 -349 -350 351 0
-348 -349 -351 -352 0
-353 351 -352 0
-348 349 351 -352 0
353 348 -349 -354 0
349 350 -351 -354 0
348 -350 -352 -354 0
-348 349 -350 352 -354 0
353 -351 354 0
-349 350 -351 354 0
353 -348 349 -355 0
-349 -350 -355 0
-348 -351 -355 0
348 349 351 -355 0
349 350 -352 -355 0
-349 352 -355 0
-353 -350 -351 352 -355 0
-348 350 354 -355 0
353 -349 350 355 0
348 352 355 0
-353 -354 355 0
349 354 355 0
-356 -357 -358 359 0
-356 -357 -359 -360 0
-361 359 -360 0
-356 357 359 -360 0
361 356 -357 -362 0
357 358 -359 -362 0
356 -358 -360 -362 0
-356 357 -358 360 -362 0
361 -359 362 0
-357 358 -359 362 0
361 -356 357 -363 0
-357 -358 -363 0
-356 -359 -363 0
356 357 359 -363 0
357 358 -360 -363 0
-357 360 -363 0
-361 -358 -359 360 -363 0
-356 358 362 -363 0
361 -357 358 363 0
356 360 363 0
-361 -362 363 0
357 362 363 0
-364 -365 -366 367 0
-364 -365 -367 -368 0
-369 367 -368 0
-364 365 367 -368 0
369 364 -365 -370 0
365 366 -367 -370 0
364 -366 -368 -370 0
-364 365 -366 368 -370 0
369 -367 370 0
-365 366 -367 370 0
369 -364 365 -371 0
-365 -366 -371 0
-364 -367 -371 0
364 365 367 -371 0
365 366 -368 -371 0
-365 368 -371 0
-369 -366 -367 368 -371 0
-364 366 370 -371 0
369 -365 366 371 0
364 368 371 0
-369 -370 371 0
365 370 371 0
-372 -373 -374 375 0
-372 -373 -375 -376 0
-377 375 -376 0
-372 373 375 -376 0
377 372 -373 -378 0
373 374 -375 -378 0
372 -374 -376 -378 0
-372 373 -374 376 -378 0
377 -375 378 0
-373 374 -375 378 0
377 -372 373 -379 0
-373 -374 -379 0
-372 -375 -379 0
372 373 375 -379 0
373 374 -376 -379 0
-373 376 -379 0
-377 -374 -375 376 -379 0
-372 374 378 -379 0
377 -373 374 379 0
372 376 379 0
-377 -378 379 0
373 378 379 0
-380 -342 -381 382 0
-380 -342 -382 -383 0
-384 382 -383 0
-380 342 382 -383 0
384 380 -342 -385 0
342 381 -382 -385 0
380 -381 -383 -385 0
-380 342 -381 383 -385 0
384 -382 385 0
-342 381 -382 385 0
384 -380 342 -386 0
-342 -381 -386 0
-380 -382 -386 0
380 342 382 -386 0
342 381 -383 -386 0
-342 383 -386 0
-384 -381 -382 383 -386 0
-380 381 385 -386 0
384 -342 381 386 0
380 383 386 0
-384 -385 386 0
342 385 386 0
-387 -388 -389 390 0
-387 -388 -390 -391 0
-392 390 -391 0
-387 388 390 -391 0
392 387 -388 -393 0
388 389 -390 -393 0
387 -389 -391 -393 0
-387 388 -389 391 -393 0
392 -390 393 0
-388 389 -390 393 0
392 -387 388 -394 0
-388 -389 -394 0
-387 -390 -394 0
387 388 390 -394 0
388 389 -391 -394 0
-388 391 -394 0
-392 -389 -390 391 -394 0
-387 389 393 -394 0
392 -388 389 394 0
387 391 394 0
-392 -393 394 0
388 393 394 0
-395 -344 -396 397 0
-395 -344 -397 -398 0
-399 397 -398 0
-395 344 397 -398 0
399 395 -344 -400 0
344 396 -397 -400 0
395 -396 -398 -400 0
-395 344 -396 398 -400 0
399 -397 400 0
-344 396 -397 400 0
399 -395 344 -401 0
-344 -396 -401 0
-395 -397 -401 0
395 344 397 -401 0
344 396 -398 -401 0
-344 398 -401 0
-399 -396 -397 398 -401 0
-395 396 400 -401 0
399 -344 396 401 0
395 398 401 0
-399 -400 401 0
344 400 401 0
-402 -346 -403 404 0
-402 -346 -404 -405 0
-406 404 -405 0
-402 346 404 -405 0
406 402 -346 -407 0
346 403 -404 -407 0
402 -403 -405 -407 0
-402 346 -403 405 -407 0
406 -404 407 0
-346 403 -404 407 0
406 -402 346 -408 0
-346 -403 -408 0
-402 -404 -408 0
402 346 404 -408 0
346 403 -405 -408 0
-346 405 -408 0
-406 -403 -404 405 -408 0
-402 403 407 -408 0
406 -346 403 408 0
402 405 408 0
-406 -407 408 0
346 407 408 0
-359 -363 -409 0
-359 363 409 0
359 -410 0
363 -409 410 0
-363 409 410 0
397 398 -411 0
-397 398 411 0
-398 -400 -412 0
-397 400 -411 -412 0
397 400 411 -412 0
-398 400 412 0
-397 -400 -411 412 0
397 -400 411 412 0
-397 -401 -413 0
397 401 -413 0
397 -401 413 0
-397 401 413 0
359 360 -414 0
-359 360 414 0
-360 -362 -415 0
-359 362 -414 -415 0
359 362 414 -415 0
-360 362 415 0
-359 -362 -414 415 0
359 -362 414 415 0
-359 -363 -416 0
359 363 -416 0
359 -363 416 0
-359 363 416 0
-397 -401 -417 0
-397 401 417 0
397 -418 0
401 -417 418 0
-401 417 418 0
-404 -408 -419 0
-404 408 419 0
404 -420 0
408 -419 420 0
-408 419 420 0
382 383 -421 0
-382 383 421 0
-383 -385 -422 0
-382 385 -421 -422 0
382 385 421 -422 0
-383 385 422 0
-382 -385 -421 422 0
382 -385 421 422 0
-382 -386 -423 0
382 386 -423 0
382 -386 423 0
-382 386 423 0
404 405 -424 0
-404 405 424 0
-405 -407 -425 0
-404 407 -424 -425 0
404 407 424 -425 0
-405 407 425 0
-404 -407 -424 425 0
404 -407 424 425 0
-404 -408 -426 0
404 408 -426 0
404 -408 426 0
-404 408 426 0
-382 -386 -427 0
-382 386 427 0
382 -428 0
386 -427 428 0
-386 427 428 0
-390 -394 -429 0
-390 394 429 0
390 -430 0
394 -429 430 0
-394 429 430 0
367 368 -431 0
-367 368 431 0
-368 -370 -432 0
-367 370 -431 -432 0
367 370 431 -432 0
-368 370 432 0
-367 -370 -431 432 0
367 -370 431 432 0
-367 -371 -433 0
367 371 -433 0
367 -371 433 0
-367 371 433 0
390 391 -434 0
-390 391 434 0
-391 -393 -435 0
-390 393 -434 -435 0
390 393 434 -435 0
-391 393 435 0
-390 -393 -434 435 0
390 -393 434 435 0
-390 -394 -436 0
390 394 -436 0
390 -394 436 0
-390 394 436 0
-367 -371 -437 0
-367 371 437 0
367 -438 0
371 -437 438 0
-371 437 438 0
-375 -379 -439 0
-375 379 439 0
375 -440 0
379 -439 440 0
-379 439 440 0
351 352 -441 0
-351 352 441 0
-352 -354 -442 0
-351 354 -441 -442 0
351 354 441 -442 0
-352 354 442 0
-351 -354 -441 442 0
351 -354 441 442 0
-351 -355 -443 0
351 355 -443 0
351 -355 443 0
-351 355 443 0
375 376 -444 0
-375 376 444 0
-376 -378 -445 0
-375 378 -444 -445 0
375 378 444 -445 0
-376 378 445 0
-375 -378 -444 445 0
375 -378 444 445 0
-375 -379 -446 0
375 379 -446 0
375 -379 446 0
-375 379 446 0
-351 -355 -447 0
-351 355 447 0
351 -448 0
355 -447 448 0
-355 447 448 0
-134 -37 4 0
-134 37 -4 0
134 37 4 0
134 -37 -4 0
-83 115 449 0
83 -115 449 0
83 115 -449 0
-83 -115 -449 0
130 -41 7 0
130 41 -7 0
-130 41 7 0
-130 -41 -7 0
-87 119 -450 0
87 -119 -450 0
87 119 450 0
-87 -119 450 0
-93 -376 441 0
93 -376 -441 0
-93 376 -441 0
93 376 441 0
-112 -436 438 0
-112 436 -438 0
112 436 438 0
112 -436 -438 0
102 -354 445 0
-102 -354 -445 0
102 354 -445 0
-102 354 445 0
142 -49 12 0
142 49 -12 0
-142 49 12 0
-142 -49 -12 0
113 -405 421 0
-113 -405 -421 0
113 405 -421 0
-113 405 421 0
-105 -391 431 0
105 -391 -431 0
-105 391 -431 0
105 391 431 0
-106 -393 432 0
106 -393 -432 0
-106 393 -432 0
106 393 432 0
108 -430 433 0
108 430 -433 0
-108 430 433 0
-108 -430 -433 0
114 -407 422 0
-114 -407 -422 0
114 407 -422 0
-114 407 422 0
116 -420 423 0
116 420 -423 0
-116 420 423 0
-116 -420 -423 0
118 -385 425 0
-118 -385 -425 0
118 385 -425 0
-118 385 425 0
120 -426 428 0
120 426 -428 0
-120 426 428 0
-120 -426 -428 0
131 43 8 0
131 -43 -8 0
-131 -43 8 0
-131 43 -8 0
-137 -51 13 0
-137 51 -13 0
137 51 13 0
137 -51 -13 0
-150 37 -57 0
-150 -37 57 0
150 37 57 0
150 -37 -57 0
-145 39 -59 0
-145 -39 59 0
145 39 59 0
145 -39 -59 0
-146 41 -61 0
-146 -41 61 0
146 41 61 0
146 -41 -61 0
-138 -53 15 0
-138 53 -15 0
138 53 15 0
138 -53 -15 0
94 -378 442 0
-94 -378 -442 0
94 378 -442 0
-94 378 442 0
-158 49 -65 0
-158 -49 65 0
158 49 65 0
158 -49 -65 0
-147 43 -63 0
-147 -43 63 0
147 43 63 0
147 -43 -63 0
-96 -440 443 0
-96 440 -443 0
96 440 443 0
96 -440 -443 0
110 -370 435 0
-110 -370 -435 0
110 370 -435 0
-110 370 435 0
109 -368 434 0
-109 -368 -434 0
109 368 -434 0
-109 368 434 0
-104 -446 448 0
-104 446 -448 0
104 446 448 0
104 -446 -448 0
139 -55 16 0
139 55 -16 0
-139 55 16 0
-139 -55 -16 0
-154 53 -69 0
-154 -53 69 0
154 53 69 0
154 -53 -69 0
153 51 -67 0
153 -51 67 0
-153 51 67 0
-153 -51 -67 0
-101 -352 444 0
101 -352 -444 0
-101 352 -444 0
101 352 444 0
117 -383 424 0
-117 -383 -424 0
117 383 -424 0
-117 383 424 0
129 -39 5 0
129 39 -5 0
-129 39 5 0
-129 -39 -5 0
-155 55 -71 0
-155 -55 71 0
155 55 71 0
155 -55 -71 0
-161 59 -19 0
-161 -59 19 0
161 59 19 0
161 -59 -19 0
162 61 -21 0
162 -61 21 0
-162 61 21 0
-162 -61 -21 0
-166 57 -17 0
-166 -57 17 0
166 57 17 0
166 -57 -17 0
174 65 -25 0
174 -65 25 0
-174 65 25 0
-174 -65 -25 0
169 67 -27 0
169 -67 27 0
-169 67 27 0
-169 -67 -27 0
-163 63 -23 0
-163 -63 23 0
163 63 23 0
163 -63 -23 0
-170 69 -29 0
-170 -69 29 0
170 69 29 0
170 -69 -29 0
171 71 -31 0
171 -71 31 0
-171 71 31 0
-171 -71 -31 0
-81 113 -360 -411 0
-81 113 360 411 0
81 -113 -360 -411 0
81 -113 360 411 0
81 113 -360 411 0
-81 -113 -360 411 0
81 113 360 -411 0
-81 -113 360 -411 0
343 274 307 -311 0
-343 274 -307 -311 0
343 -274 307 311 0
-343 -274 -307 311 0
-343 -274 307 -311 0
-343 274 307 311 0
343 -274 -307 -311 0
343 274 -307 311 0
-406 85 -286 -302 0
-406 85 286 302 0
406 -85 -286 -302 0
406 -85 286 302 0
406 85 -286 302 0
-406 -85 -286 302 0
406 85 286 -302 0
-406 -85 286 -302 0
347 251 -304 305 0
-347 251 -304 -305 0
347 -251 304 305 0
-347 -251 304 -305 0
-347 -251 -304 305 0
-347 251 304 305 0
347 -251 -304 -305 0
347 251 304 -305 0
345 288 297 -301 0
-345 288 -297 -301 0
345 -288 297 301 0
-345 -288 -297 301 0
-345 -288 297 -301 0
-345 288 297 301 0
345 -288 -297 -301 0
345 288 -297 301 0
-250 49 -133 -222 0
-250 49 133 222 0
250 -49 -133 -222 0
250 -49 133 222 0
250 49 -133 222 0
-250 -49 -133 222 0
250 49 133 -222 0
-250 -49 133 -222 0
-238 39 -159 -220 0
-238 39 159 220 0
238 -39 -159 -220 0
238 -39 159 220 0
238 39 -159 220 0
-238 -39 -159 220 0
238 39 159 -220 0
-238 -39 159 -220 0
246 53 -225 226 0
-246 -53 -225 226 0
246 53 225 -226 0
-246 -53 225 -226 0
-246 53 225 226 0
-246 53 -225 -226 0
246 -53 225 226 0
246 -53 -225 -226 0
-280 25 -165 -201 0
-280 25 165 201 0
280 -25 -165 -201 0
280 -25 165 201 0
280 25 -165 201 0
-280 -25 -165 201 0
280 25 165 -201 0
-280 -25 165 -201 0
-265 65 -149 -212 0
-265 65 149 212 0
265 -65 -149 -212 0
265 -65 149 212 0
265 65 -149 212 0
-265 -65 -149 212 0
265 65 149 -212 0
-265 -65 149 -212 0
-268 19 -183 -198 0
-268 19 183 198 0
268 -19 -183 -198 0
268 -19 183 198 0
268 19 -183 198 0
-268 -19 -183 198 0
268 19 183 -198 0
-268 -19 183 -198 0
-392 77 -272 -312 0
-392 77 272 312 0
392 -77 -272 -312 0
392 -77 272 312 0
392 77 -272 312 0
-392 -77 -272 312 0
392 77 272 -312 0
-392 -77 272 -312 0
270 23 -196 199 0
-270 -23 -196 199 0
270 23 196 -199 0
-270 -23 196 -199 0
-270 23 196 199 0
-270 23 -196 -199 0
270 -23 196 199 0
270 -23 -196 -199 0
-287 18 -141 -187 0
-287 18 141 187 0
287 -18 -141 -187 0
287 -18 141 187 0
287 18 -141 187 0
-287 -18 -141 187 0
287 18 141 -187 0
-287 -18 141 -187 0
-294 26 -178 -190 0
-294 26 178 190 0
294 -26 -178 -190 0
294 -26 178 190 0
294 26 -178 190 0
-294 -26 -178 190 0
294 26 178 -190 0
-294 -26 178 -190 0
-290 28 -179 -191 0
-290 28 179 191 0
290 -28 -179 -191 0
290 -28 179 191 0
290 28 -179 191 0
-290 -28 -179 191 0
290 28 179 -191 0
-290 -28 179 -191 0
247 55 -224 227 0
-247 -55 -224 227 0
247 55 224 -227 0
-247 -55 224 -227 0
-247 55 224 227 0
-247 55 -224 -227 0
247 -55 224 227 0
247 -55 -224 -227 0
229 135 217 -221 0
-229 135 -217 -221 0
229 -135 217 221 0
-229 -135 -217 221 0
-229 -135 217 -221 0
-229 135 217 221 0
229 -135 -217 -221 0
229 135 -217 221 0
-253 59 -175 -209 0
-253 59 175 209 0
253 -59 -175 -209 0
253 -59 175 209 0
253 59 -175 209 0
-253 -59 -175 209 0
253 59 175 -209 0
-253 -59 175 -209 0
85 117 -398 -414 0
85 117 398 414 0
-85 -117 -398 -414 0
-85 -117 398 414 0
-85 117 -398 414 0
85 -117 -398 414 0
-85 117 398 -414 0
85 -117 398 -414 0
-276 27 -167 -202 0
-276 27 167 202 0
276 -27 -167 -202 0
276 -27 167 202 0
276 27 -167 202 0
-276 -27 -167 202 0
276 27 167 -202 0
-276 -27 167 -202 0
269 21 -195 200 0
-269 -21 -195 200 0
269 21 195 -200 0
-269 -21 195 -200 0
-269 21 195 200 0
-269 21 -195 -200 0
269 -21 195 200 0
269 -21 -195 -200 0
-258 57 -173 -208 0
-258 57 173 208 0
258 -57 -173 -208 0
258 -57 173 208 0
258 57 -173 208 0
-258 -57 -173 208 0
258 57 173 -208 0
-258 -57 173 -208 0
231 175 -214 215 0
-231 175 -214 -215 0
231 -175 214 215 0
-231 -175 214 -215 0
-231 -175 -214 215 0
-231 175 214 215 0
231 -175 -214 -215 0
231 175 214 -215 0
95 354 439 -443 0
-95 354 -439 -443 0
95 -354 439 443 0
-95 -354 -439 443 0
95 -354 -439 -443 0
95 354 -439 443 0
-95 -354 439 -443 0
-95 354 439 443 0
-369 58 -279 -320 0
-369 58 279 320 0
369 -58 -279 -320 0
369 -58 279 320 0
369 58 -279 320 0
-369 -58 -279 320 0
369 58 279 -320 0
-369 -58 279 -320 0
-86 118 -400 -415 0
-86 118 400 415 0
86 -118 -400 -415 0
86 -118 400 415 0
86 118 -400 415 0
-86 -118 -400 415 0
86 118 400 -415 0
-86 -118 400 -415 0
262 71 -214 216 0
-262 -71 -214 216 0
262 71 214 -216 0
-262 -71 214 -216 0
-262 71 214 216 0
-262 71 -214 -216 0
262 -71 214 216 0
262 -71 -214 -216 0
-261 67 -151 -213 0
-261 67 151 213 0
261 -67 -151 -213 0
261 -67 151 213 0
261 67 -151 213 0
-261 -67 -151 213 0
261 67 151 -213 0
-261 -67 151 -213 0
237 143 -192 193 0
-237 143 -192 -193 0
237 -143 192 193 0
-237 -143 192 -193 0
-237 -143 -192 193 0
-237 143 192 193 0
237 -143 -192 -193 0
237 143 192 -193 0
103 378 -446 447 0
-103 378 -446 -447 0
103 -378 446 447 0
-103 -378 446 -447 0
103 -378 -446 -447 0
103 378 446 -447 0
-103 -378 -446 447 0
-103 378 446 447 0
88 120 -416 418 0
-88 -120 -416 418 0
88 120 416 -418 0
-88 -120 416 -418 0
-88 120 416 418 0
-88 120 -416 -418 0
88 -120 416 418 0
88 -120 -416 -418 0
235 179 185 -189 0
-235 179 -185 -189 0
235 -179 185 189 0
-235 -179 -185 189 0
-235 -179 185 -189 0
-235 179 185 189 0
235 -179 -185 -189 0
235 179 -185 189 0
-242 37 -157 -219 0
-242 37 157 219 0
242 -37 -157 -219 0
242 -37 157 219 0
242 37 -157 219 0
-242 -37 -157 219 0
242 37 157 -219 0
-242 -37 157 -219 0
277 31 -203 205 0
-277 -31 -203 205 0
277 31 203 -205 0
-277 -31 203 -205 0
-277 31 203 205 0
-277 31 -203 -205 0
277 -31 203 205 0
277 -31 -203 -205 0
233 183 -203 204 0
-233 183 -203 -204 0
233 -183 203 204 0
-233 -183 203 -204 0
-233 -183 -203 204 0
-233 183 203 204 0
233 -183 -203 -204 0
233 183 203 -204 0
-115 385 419 -423 0
115 385 -419 -423 0
-115 -385 419 423 0
115 -385 -419 423 0
-115 -385 -419 -423 0
-115 385 -419 423 0
115 -385 419 -423 0
115 385 419 423 0
-395 82 -251 -300 0
-395 82 251 300 0
395 -82 -251 -300 0
395 -82 251 300 0
395 82 -251 300 0
-395 -82 -251 300 0
395 82 251 -300 0
-395 -82 251 -300 0
255 63 -207 210 0
-255 -63 -207 210 0
255 63 207 -210 0
-255 -63 207 -210 0
-255 63 207 210 0
-255 63 -207 -210 0
255 -63 207 210 0
255 -63 -207 -210 0
-387 78 -274 -313 0
-387 78 274 313 0
387 -78 -274 -313 0
387 -78 274 313 0
387 78 -274 313 0
-387 -78 -274 313 0
387 78 274 -313 0
-387 -78 274 -313 0
450 362 -416 417 0
-450 362 -416 -417 0
450 -362 416 417 0
-450 -362 416 -417 0
-450 -362 -416 417 0
-450 362 416 417 0
450 -362 -416 -417 0
450 362 416 -417 0
449 400 409 -413 0
-449 400 -409 -413 0
449 -400 409 413 0
-449 -400 -409 413 0
-449 -400 409 -413 0
-449 400 409 413 0
449 -400 -409 -413 0
449 400 -409 413 0
-361 50 -241 -336 0
-361 50 241 336 0
361 -50 -241 -336 0
361 -50 241 336 0
361 50 -241 336 0
-361 -50 -241 336 0
361 50 241 -336 0
-361 -50 241 -336 0
358 56 -338 341 0
-358 -56 -338 341 0
358 56 338 -341 0
-358 -56 338 -341 0
-358 56 338 341 0
-358 56 -338 -341 0
358 -56 338 341 0
358 -56 -338 -341 0
349 42 -330 335 0
-349 -42 -330 335 0
349 42 330 -335 0
-349 -42 330 -335 0
-349 42 330 335 0
-349 42 -330 -335 0
349 -42 330 335 0
349 -42 -330 -335 0
357 54 -339 340 0
-357 -54 -339 340 0
357 54 339 -340 0
-357 -54 339 -340 0
-357 54 339 340 0
-357 54 -339 -340 0
357 -54 339 340 0
357 -54 -339 -340 0
373 70 -327 328 0
-373 -70 -327 328 0
373 70 327 -328 0
-373 -70 327 -328 0
-373 70 327 328 0
-373 70 -327 -328 0
373 -70 327 328 0
373 -70 -327 -328 0
-356 52 -243 -337 0
-356 52 243 337 0
356 -52 -243 -337 0
356 -52 243 337 0
356 52 -243 337 0
-356 -52 -243 337 0
356 52 243 -337 0
-356 -52 243 -337 0
374 72 -326 329 0
-374 -72 -326 329 0
374 72 326 -329 0
-374 -72 326 -329 0
-374 72 326 329 0
-374 72 -326 -329 0
374 -72 326 329 0
374 -72 -326 -329 0
388 79 -315 316 0
-388 -79 -315 316 0
388 79 315 -316 0
-388 -79 315 -316 0
-388 79 315 316 0
-388 79 -315 -316 0
388 -79 315 316 0
388 -79 -315 -316 0
389 80 -314 317 0
-389 -80 -314 317 0
389 80 314 -317 0
-389 -80 314 -317 0
-389 80 314 317 0
-389 80 -314 -317 0
389 -80 314 317 0
389 -80 -314 -317 0
-364 60 -281 -321 0
-364 60 281 321 0
364 -60 -281 -321 0
364 -60 281 321 0
364 60 -281 321 0
-364 -60 -281 321 0
364 60 281 -321 0
-364 -60 281 -321 0
396 84 -298 301 0
-396 -84 -298 301 0
396 84 298 -301 0
-396 -84 298 -301 0
-396 84 298 301 0
-396 84 -298 -301 0
396 -84 298 301 0
396 -84 -298 -301 0
-399 81 -249 -299 0
-399 81 249 299 0
399 -81 -249 -299 0
399 -81 249 299 0
399 81 -249 299 0
-399 -81 -249 299 0
399 81 249 -299 0
-399 -81 249 -299 0
-384 73 -293 -309 0
-384 73 293 309 0
384 -73 -293 -309 0
384 -73 293 309 0
384 73 -293 309 0
-384 -73 -293 309 0
384 73 293 -309 0
-384 -73 293 -309 0
381 76 -308 311 0
-381 -76 -308 311 0
381 76 308 -311 0
-381 -76 308 -311 0
-381 76 308 311 0
-381 76 -308 -311 0
381 -76 308 311 0
381 -76 -308 -311 0
350 44 -331 334 0
-350 -44 -331 334 0
350 44 331 -334 0
-350 -44 331 -334 0
-350 44 331 334 0
-350 44 -331 -334 0
350 -44 331 334 0
350 -44 -331 -334 0
366 64 -319 322 0
-366 -64 -319 322 0
366 64 319 -322 0
-366 -64 319 -322 0
-366 64 319 322 0
-366 64 -319 -322 0
366 -64 319 322 0
366 -64 -319 -322 0
254 61 -206 211 0
-254 -61 -206 211 0
254 61 206 -211 0
-254 -61 206 -211 0
-254 61 206 211 0
-254 61 -206 -211 0
254 -61 206 211 0
254 -61 -206 -211 0
-245 51 -135 -223 0
-245 51 135 223 0
245 -51 -135 -223 0
245 -51 135 223 0
245 51 -135 223 0
-245 -51 -135 223 0
245 51 135 -223 0
-245 -51 135 -223 0
-84 116 -410 413 0
84 -116 -410 413 0
-84 116 410 -413 0
84 -116 410 -413 0
84 116 410 413 0
84 116 -410 -413 0
-84 -116 410 413 0
-84 -116 -410 -413 0
-111 393 -436 437 0
111 393 -436 -437 0
-111 -393 436 437 0
111 -393 436 -437 0
-111 -393 -436 -437 0
-111 393 436 -437 0
111 -393 -436 437 0
111 393 436 437 0
284 24 -186 189 0
-284 -24 -186 189 0
284 24 186 -189 0
-284 -24 186 -189 0
-284 24 186 189 0
-284 24 -186 -189 0
284 -24 186 189 0
284 -24 -186 -189 0
-273 17 -182 -197 0
-273 17 182 197 0
273 -17 -182 -197 0
273 -17 182 197 0
273 17 -182 197 0
-273 -17 -182 197 0
273 17 182 -197 0
-273 -17 182 -197 0
239 43 -218 221 0
-239 -43 -218 221 0
239 43 218 -221 0
-239 -43 218 -221 0
-239 43 218 221 0
-239 43 -218 -221 0
239 -43 218 221 0
239 -43 -218 -221 0
-402 86 -288 -303 0
-402 86 288 303 0
402 -86 -288 -303 0
402 -86 288 303 0
402 86 -288 303 0
-402 -86 -288 303 0
402 86 288 -303 0
-402 -86 288 -303 0
-348 40 -266 -333 0
-348 40 266 333 0
348 -40 -266 -333 0
348 -40 266 333 0
348 40 -266 333 0
-348 -40 -266 333 0
348 40 266 -333 0
-348 -40 266 -333 0
82 114 -362 -412 0
82 114 362 412 0
-82 -114 -362 -412 0
-82 -114 362 412 0
-82 114 -362 412 0
82 -114 -362 412 0
-82 114 362 -412 0
82 -114 362 -412 0
-107 370 429 -433 0
107 370 -429 -433 0
-107 -370 429 433 0
107 -370 -429 433 0
-107 -370 -429 -433 0
-107 370 -429 433 0
107 -370 429 -433 0
107 370 429 433 0
-380 74 -295 -310 0
-380 74 295 310 0
380 -74 -295 -310 0
380 -74 295 310 0
380 74 -295 310 0
-380 -74 -295 310 0
380 74 295 -310 0
-380 -74 295 -310 0
-372 68 -259 -325 0
-372 68 259 325 0
372 -68 -259 -325 0
372 -68 259 325 0
372 68 -259 325 0
-372 -68 -259 325 0
372 68 259 -325 0
-372 -68 259 -325 0
291 32 -192 194 0
-291 -32 -192 194 0
291 32 192 -194 0
-291 -32 192 -194 0
-291 32 192 194 0
-291 32 -192 -194 0
291 -32 192 194 0
291 -32 -192 -194 0
-377 66 -257 -324 0
-377 66 257 324 0
377 -66 -257 -324 0
377 -66 257 324 0
377 66 -257 324 0
-377 -66 -257 324 0
377 66 257 -324 0
-377 -66 257 -324 0
119 407 -426 427 0
-119 407 -426 -427 0
119 -407 426 427 0
-119 -407 426 -427 0
119 -407 -426 -427 0
119 407 426 -427 0
-119 -407 -426 427 0
-119 407 426 427 0
365 62 -318 323 0
-365 -62 -318 323 0
365 62 318 -323 0
-365 -62 318 -323 0
-365 62 318 323 0
-365 62 -318 -323 0
365 -62 318 323 0
365 -62 -318 -323 0
-283 20 -143 -188 0
-283 20 143 188 0
283 -20 -143 -188 0
283 -20 143 188 0
283 20 -143 188 0
-283 -20 -143 188 0
283 20 143 -188 0
-283 -20 143 -188 0
403 88 -304 306 0
-403 -88 -304 306 0
403 88 304 -306 0
-403 -88 304 -306 0
-403 88 304 306 0
-403 88 -304 -306 0
403 -88 304 306 0
403 -88 -304 -306 0
-353 38 -264 -332 0
-353 38 264 332 0
353 -38 -264 -332 0
353 -38 264 332 0
353 38 -264 332 0
-353 -38 -264 332 0
353 38 264 -332 0
-353 -38 264 -332 0
